
Gurobi 9.0.3 (win64, Java) logging started Sat Feb 27 23:57:53 2021


--------------------------------------------
Warning: your license will expire in 5 days
--------------------------------------------

Academic license - for non-commercial use only
